language Essence 1.3

letting bot_end be [20, 19, 993, 1009, 1, 969, 18, 988, 989, 17, 38, 894, 77, 37, 1007; int(1..15)]
letting bot_start be [966, 892, 16, 35, 910, 93, 856, 92, 51, 975, 929, 17, 987, 1015, 112; int(1..15)]
letting buffer_col be 2
letting buffer_row be 2
letting corridor_size be 1
letting n_shelves_col be 5
letting n_shelves_row be 25
letting shelf_col_size be 2
letting shelf_row_size be 1
